n=150;
k_min=3;
k_max=3;
M=[| 0.14, 1.0, 0.0
 | 0.14, 1.0, 0.0
 | 0.14, 1.0, 0.0
 | 0.14, 1.0, 0.0
 | 0.14, 1.0, 0.0
 | 0.14, 0.98, 0.0
 | 0.14, 1.0, 0.0
 | 0.14, 0.86, 0.0
 | 0.14, 0.98, 0.0
 | 0.14, 1.0, 0.0
 | 0.14, 0.94, 0.0
 | 0.14, 1.0, 0.0
 | 0.14, 1, 0.0
 | 0.14, 0.98, 0.0
 | 0.14, 1.0, 0.0
 | 0.14, 1.0, 0.0
 | 0.14, 1.0, 0.0
 | 0.14, 1.0, 0.0
 | 0.14, 0.98, 0.0
 | 0.14, 1.0, 0.0
 | 0.14, 1, 0.0
 | 0.14, 0.96, 0.0
 | 0.14, 0.96, 0.0
 | 0.14, 0.98, 0.0
 | 0.14, 1.0, 0.0
 | 0.14, 1.0, 0.0
 | 0.14, 0.98, 0.0
 | 0.14, 0.98, 0.0
 | 0.0, 1.0, 0.0
 | 0.14, 1.0, 0.0
 | 0.14, 1.0, 0.0
 | 0.14, 0.96, 0.0
 | 0.14, 0.98, 0.0
 | 0.14, 1.0, 0.0
 | 0.14, 1.0, 0.0
 | 0.0, 0.96, 0.0
 | 0.14, 0.94, 0.0
 | 0.14, 1.0, 0.0
 | 0.14, 0.98, 0.0
 | 0.14, 1.0, 0.0
 | 0.14, 1.0, 0.0
 | 0.14, 0.98, 0.0
 | 0.14, 0.98, 0.0
 | 0.14, 0.98, 0.0
 | 0.14, 0.98, 0.0
 | 0.14, 0.98, 0.0
 | 0.14, 1.0, 0.0
 | 0.14, 1.0, 0.0
 | 0.14, 1, 0.0
 | 0.14, 0.98, 0.0
 | 1.0, 0.0, 0.14
 | 0.94, 0.0, 0.14
 | 0.94, 0.0, 0.2
 | 1.0, 0.0, 0.14
 | 0.98, 0.0, 0.14
 | 1.0, 0.0, 0.14
 | 1, 0.0, 0.14
 | 1.0, 0.14, 0.0
 | 1.0, 0.0, 0.14
 | 1, 0.0, 0.14
 | 0.86, 0.0, 0.14
 | 0.88, 0.0, 0.14
 | 0.9, 0.0, 0.14
 | 1.0, 0.0, 0.14
 | 1.0, 0.0, 0.14
 | 0.98, 0.0, 0.14
 | 0.92, 0.0, 0.14
 | 1.0, 0.0, 0.14
 | 0.74, 0.0, 0.14
 | 1.0, 0.0, 0.14
 | 0.94, 0.0, 0.0
 | 0.92, 0.0, 0.14
 | 0.92, 0.0, 0.14
 | 0.94, 0.0, 0.14
 | 0.92, 0.0, 0.14
 | 0.98, 0.0, 0.14
 | 1.0, 0.0, 0.14
 | 0.92, 0.0, 0.2
 | 0.9, 0.0, 0.14
 | 1.0, 0.0, 0.14
 | 1.0, 0.0, 0.14
 | 1.0, 0.0, 0.14
 | 1.0, 0.0, 0.14
 | 0.98, 0.0, 0.14
 | 0.94, 0.0, 0.14
 | 1.0, 0.0, 0.14
 | 1.0, 0.0, 0.14
 | 0.84, 0.0, 0.14
 | 1.0, 0.0, 0.14
 | 0.96, 0.0, 0.14
 | 0.96, 0.0, 0.14
 | 0.98, 0.0, 0.14
 | 1.0, 0.0, 0.14
 | 1.0, 0.14, 0.0
 | 1, 0.0, 0.14
 | 1.0, 0.0, 0.14
 | 1.0, 0.0, 0.14
 | 0.92, 0.0, 0.14
 | 1.0, 0.14, 0.0
 | 0.98, 0.0, 0.14
 | 0.92, 0.0, 0.34
 | 0.96, 0.0, 0.14
 | 0.44, 0.0, 0.84
 | 0.92, 0.0, 0.3
 | 0.94, 0.0, 0.34
 | 0.34, 0.0, 0.98
 | 0.84, 0.0, 0.14
 | 0.34, 0.0, 0.98
 | 0.94, 0.0, 0.34
 | 0.36, 0.0, 0.94
 | 1.0, 0.0, 0.2
 | 0.68, 0.0, 0.2
 | 1.0, 0.0, 0.34
 | 0.96, 0.0, 0.14
 | 0.86, 0.0, 0.14
 | 0.98, 0.0, 0.34
 | 0.96, 0.0, 0.32
 | 0.34, 0.0, 1.0
 | 0.34, 0.0, 0.98
 | 0.94, 0.0, 0.14
 | 0.94, 0.0, 0.34
 | 0.96, 0.0, 0.14
 | 0.34, 0.0, 0.98
 | 0.98, 0.0, 0.14
 | 0.94, 0.0, 0.34
 | 0.34, 0.0, 0.96
 | 1.0, 0.0, 0.14
 | 0.96, 0.0, 0.14
 | 0.98, 0.0, 0.34
 | 0.42, 0.0, 0.88
 | 0.34, 0.0, 0.98
 | 0.34, 0.0, 1.0
 | 0.98, 0.0, 0.34
 | 0.98, 0.0, 0.14
 | 0.9, 0.0, 0.2
 | 0.34, 0.0, 1.0
 | 0.96, 0.0, 0.34
 | 0.94, 0.0, 0.3
 | 0.96, 0.0, 0.14
 | 1.0, 0.0, 0.34
 | 0.94, 0.0, 0.34
 | 1.0, 0.0, 0.34
 | 0.96, 0.0, 0.14
 | 0.94, 0.0, 0.34
 | 0.94, 0.0, 0.34
 | 1.0, 0.0, 0.34
 | 0.98, 0.0, 0.14
 | 1.0, 0.0, 0.2
 | 0.96, 0.0, 0.34
 | 0.96, 0.0, 0.14 |];
 P=[2, 2, 2, 2, 2, 2, 2, 2, 2, 2, 2, 2, 2, 2, 2, 2, 2, 2, 2, 2, 2, 2, 2, 2, 2, 2, 2, 2, 2, 2, 2, 2, 2, 2, 2, 2, 2, 2, 2, 2, 2, 2, 2, 2, 2, 2, 2, 2, 2, 2, 1, 1, 1, 1, 1, 1, 1, 1, 1, 1, 1, 1, 1, 1, 1, 1, 1, 1, 1, 1, 1, 1, 1, 1, 1, 1, 1, 1, 1, 1, 1, 1, 1, 1, 1, 1, 1, 1, 1, 1, 1, 1, 1, 1, 1, 1, 1, 1, 1, 1, 1, 1, 3, 1, 1, 3, 1, 3, 1, 3, 1, 1, 1, 1, 1, 1, 1, 3, 3, 1, 1, 1, 3, 1, 1, 3, 1, 1, 1, 3, 3, 3, 1, 1, 1, 3, 1, 1, 1, 1, 1, 1, 1, 1, 1, 1, 1, 1, 1, 1 ];